6 6 67
3 5 1 5 2 5 3 16 26 26 40 40 55 
5 2 1 2 2 3 1 3 2 4 3 4 14 14 30 32 40 40 58 58 67 
3 6 1 1 1 1 2 24 35 38 50 50 67 
4 4 1 4 2 6 2 6 3 12 23 23 36 40 53 53 64 
7 2 1 6 1 6 1 3 1 3 1 6 2 6 2 0 4 4 14 14 24 24 28 28 32 32 38 38 40 
7 4 1 5 1 5 1 1 1 1 1 4 3 4 3 0 12 12 14 14 16 16 28 28 38 38 40 40 46 
